
Gurobi 9.5.0 (win64) logging started Tue Jun  7 18:02:43 2022

Set parameter LogFile to value "C:\Users\kmajd1\Documents\NNRepLayer_v2\demos\examples\tc7_walking_example\v2\repair_bound_constraint\repair_net/logs/opt_log_6_7_2022_18_2_24.log"
Gurobi Optimizer version 9.5.0 build v9.5.0rc5 (win64)
Thread count: 8 physical cores, 16 logical processors, using up to 16 threads
Optimize a model with 366 rows, 134 columns and 1180 nonzeros
Model fingerprint: 0xb05f9ec6
Model has 101 quadratic objective terms
Coefficient statistics:
  Matrix range     [7e-04, 1e+01]
  Objective range  [1e-03, 4e-01]
  QObjective range [2e-02, 2e+00]
  Bounds range     [1e+01, 4e+01]
  RHS range        [8e-04, 2e+01]
Presolve removed 210 rows and 5 columns
Presolve time: 0.01s
Presolved: 156 rows, 129 columns, 960 nonzeros
Presolved model has 101 quadratic objective terms
Ordering time: 0.00s

Barrier statistics:
 Dense cols : 9
 AA' NZ     : 1.800e+03
 Factor NZ  : 2.552e+03
 Factor Ops : 5.622e+04 (less than 1 second per iteration)
 Threads    : 1

                  Objective                Residual
Iter       Primal          Dual         Primal    Dual     Compl     Time
   0   1.62580083e+07 -1.72845498e+07  5.27e+03 3.99e+02  8.62e+05     0s
   1   6.69618970e+06 -7.87516721e+06  3.28e+03 2.49e+02  5.85e+05     0s
   2   1.80017322e+04 -1.95518478e+06  1.74e+02 1.32e+01  4.89e+04     0s
   3   1.02491714e+02 -1.67629158e+06  1.74e-04 1.32e-05  5.34e+03     0s
   4   1.02249920e+02 -2.54074229e+03  1.00e-07 7.62e-09  8.42e+00     0s
   5   3.66067853e+01 -1.45476526e+02  3.05e-09 2.32e-10  5.80e-01     0s
   6   5.71143619e+00 -1.35243496e+01  1.42e-14 4.35e-15  6.13e-02     0s
   7   2.28391771e+00  9.67731488e-01  8.53e-14 2.48e-15  4.19e-03     0s
   8   1.90630227e+00  1.75883870e+00  3.64e-12 1.31e-15  4.70e-04     0s
   9   1.87869017e+00  1.87065084e+00  6.71e-12 8.67e-16  2.56e-05     0s
  10   1.87657434e+00  1.87637359e+00  8.26e-11 1.08e-14  6.39e-07     0s
  11   1.87651760e+00  1.87651615e+00  1.73e-10 1.10e-14  4.63e-09     0s
  12   1.87651677e+00  1.87651676e+00  1.52e-09 1.29e-14  5.00e-12     0s

Barrier solved model in 12 iterations and 0.04 seconds (0.00 work units)
Optimal objective 1.87651677e+00

